Code/Rooms/2nwalls20-6.dzn
n = 20;

R =
[|0,0,2,0,0,0,0,0,1,5,5,5,5,5,0,0,0,0,3,0,
 |0,0,2,0,0,0,2,2,7,0,0,0,0,0,0,0,0,0,3,0,
 |0,0,0,0,0,0,0,6,7,0,0,0,2,2,0,0,0,0,3,0,
 |0,0,0,3,0,0,0,6,7,0,0,0,0,0,0,0,0,0,0,0,
 |0,0,1,3,2,0,0,6,7,9,9,9,9,9,9,9,9,9,6,0,
 |0,2,2,3,2,0,0,6,7,0,0,0,0,0,0,8,0,0,6,0,
 |0,8,0,0,0,0,0,6,7,0,0,0,0,7,0,8,0,0,6,0,
 |0,8,0,0,0,0,0,6,7,2,2,0,3,7,0,8,0,0,6,0,
 |0,8,10,0,1,5,5,5,5,5,0,0,3,7,0,8,0,0,6,0,
 |6,8,10,4,4,4,4,2,2,0,0,0,3,7,0,8,1,0,6,0,
 |6,8,10,0,0,0,0,0,0,0,0,0,0,7,0,8,0,0,0,0,
 |6,8,10,0,3,0,1,0,4,4,4,4,3,7,5,8,0,0,0,0,
 |6,8,10,0,3,0,0,0,0,0,0,0,3,7,5,8,0,0,0,0,
 |6,8,10,0,3,0,0,2,2,0,0,0,3,1,5,0,0,0,0,0,
 |6,0,10,0,1,0,8,8,8,8,8,8,8,8,5,0,0,0,0,0,
 |0,0,10,3,0,0,0,0,0,0,0,0,0,0,5,0,0,0,0,0,
 |0,0,10,3,0,0,0,0,0,0,0,8,8,8,8,8,8,8,8,0,
 |0,0,10,3,0,0,0,0,0,0,0,0,0,0,0,0,0,0,0,0,
 |0,3,3,3,0,0,0,0,0,0,0,0,0,0,0,0,0,0,0,0,
 |6,6,6,6,6,6,4,4,4,4,0,0,0,0,0,0,0,0,0,0,
 |];

