Code/Walks/2nwalls20-6.txt
=====UNSATISFIABLE=====
% time elapsed: 1.31 s
